12 32 6 10
18 9 14 3 19 5 2 18 13 12 15 4 17 11 5 20 18 13 4 8 3 11 20 9 19 2 8 13 4 4 17 5 
4.36 4.99 2.19 0.58 1.31 4.89 4.25 7.77 7.52 0.78 7 5.67 4.08 7.31 4.28 1.93 4.98 0.14 2.18 3.31 6.83 4.35 7.22 0.33 7.66 2.31 2.37 6.84 2.16 1.45 2.48 7.84 
5.39 0.73 5.58 3.28 2.41 6.03 5.17 7.44 2.47 2.31 6.87 1.56 7.05 5.85 4.07 3.79 0.53 3.79 4.75 5.35 0.41 1.15 0.38 1.51 4.37 4.42 3.11 2.09 5.35 0.85 2.33 5.43 
4.8 0.07 5.34 3.31 2.72 1.57 5.93 3.08 2.41 0.77 3.75 0.04 4.02 1.9 0.75 1.48 0.26 1.59 5.42 5.66 1.41 4.86 2.41 7.92 2.26 1.26 5.54 5.4 4.26 0.76 7.75 7.09 
0.35 5.11 0.65 4.42 5.31 3.32 6.85 6.81 0.24 1.11 2.87 0.61 7.86 7.27 0.43 1.88 2.66 6.75 6.9 7.52 5.61 4.68 1.25 5.93 6.17 6.64 5.91 5.64 7.11 0.09 1.45 1.34 
1.77 5.64 0.12 6.19 3.38 6.52 5.23 5.95 6.53 2.12 3.12 0.95 6.77 3.73 2.97 5.38 0.01 2.09 5.65 2.58 5.22 2.98 7.5 4.35 2.21 7.2 2.44 6.92 7 3.88 1.67 1.26 
5.47 2.39 5.98 7.88 6.96 1.04 7.7 7.58 3.65 6.63 5.09 2.27 3.78 7.8 5.52 6.86 7.46 6.67 1.86 7.44 1.38 1.14 4.31 1.9 5.37 6.86 3.89 2.02 1.43 2.64 6.01 7.39 
4 4 4 4 4 4 4 4 4 4 4 4 4 4 4 4 4 4 4 4 4 4 4 4 4 4 4 4 4 4 4 4 
2.18 3.43 1.89 0.16 7.76 7.49 0.29 6.08 0.52 6.87 7.2 6.74 0.77 6 0.31 0.7 0.71 7.84 5.82 1.04 3.91 2.91 6.75 6.99 3.15 6.48 7.41 7.99 1.24 6.47 3.64 0.8 
4.47 0.92 3.27 4.18 4.15 2.34 2.18 2.7 0.82 0.31 0.68 0.52 0.96 2.45 0.3 3.23 7.66 6.45 4.93 7.76 3.73 3.95 5.35 7.02 7.88 7.97 0.83 7.86 5.71 2.86 6.15 3.46 
6 3.54 3.11 2.21 2.68 3.03 1.32 5.7 6.08 4.59 3.74 0.69 4.95 4.8 6.61 5.69 6.96 5.29 0.74 7.78 3.29 2.33 2.98 2.63 4.66 1.96 4.52 7.22 1.73 1.31 6.22 0.54 
5.98 0.74 7.92 5.91 0.95 7.31 1.29 1.08 3.14 7.69 1.46 1.94 7.95 4.15 2.76 7.72 0.77 4.56 2.87 5.75 2.22 6.5 2.28 4.72 0.41 2.1 5.94 2.26 5.43 5.16 1.51 1.42 
3.76 2.64 0.51 5.88 5.3 3.63 3.82 5.96 1.51 1.79 7.88 1.45 7.4 7.59 4.16 7.22 7.54 7.23 2.95 5.43 3.04 0.8 5.71 4.74 5.71 3.88 0.23 3.34 6.3 1.15 4.58 2.68 
1 1 1 1 1 1 1 1 1 1 1 1 1 1 1 1 1 1 1 1 1 1 1 1 1 1 1 1 1 1 1 1 
1 1 1 1 1 1 1 1 1 1 1 1 1 1 1 1 1 1 1 1 1 1 1 1 1 1 1 1 1 1 1 1 
1 1 1 1 1 1 1 1 1 1 1 1 1 1 1 1 1 1 1 1 1 1 1 1 1 1 1 1 1 1 1 1 
1 1 1 1 1 1 1 1 1 1 1 1 1 1 1 1 1 1 1 1 1 1 1 1 1 1 1 1 1 1 1 1 
1 1 1 1 1 1 1 1 1 1 1 1 1 1 1 1 1 1 1 1 1 1 1 1 1 1 1 1 1 1 1 1 
1 1 1 1 1 1 1 1 1 1 1 1 1 1 1 1 1 1 1 1 1 1 1 1 1 1 1 1 1 1 1 1 
1 1 1 1 1 1 1 1 1 1 1 1 1 1 1 1 1 1 1 1 1 1 1 1 1 1 1 1 1 1 1 1 
1 1 1 1 1 1 1 1 1 1 1 1 1 1 1 1 1 1 1 1 1 1 1 1 1 1 1 1 1 1 1 1 
1 1 1 1 1 1 1 1 1 1 1 1 1 1 1 1 1 1 1 1 1 1 1 1 1 1 1 1 1 1 1 1 
1 1 1 1 1 1 1 1 1 1 1 1 1 1 1 1 1 1 1 1 1 1 1 1 1 1 1 1 1 1 1 1 
1 1 1 1 1 1 1 1 1 1 1 1 1 1 1 1 1 1 1 1 1 1 1 1 1 1 1 1 1 1 1 1 
1 1 1 1 1 1 1 1 1 1 1 1 1 1 1 1 1 1 1 1 1 1 1 1 1 1 1 1 1 1 1 1 
0.01 0.01 0.01 0.01 0.01 0.01 0.01 0.01 0.01 0.01 0.01 0.01 0.01 0.01 0.01 0.01 0.01 0.01 0.01 0.01 0.01 0.01 0.01 0.01 0.01 0.01 0.01 0.01 0.01 0.01 0.01 0.01 
0.02 0.02 0.02 0.02 0.02 0.02 0.02 0.02 0.02 0.02 0.02 0.02 0.02 0.02 0.02 0.02 0.02 0.02 0.02 0.02 0.02 0.02 0.02 0.02 0.02 0.02 0.02 0.02 0.02 0.02 0.02 0.02 
0.03 0.03 0.03 0.03 0.03 0.03 0.03 0.03 0.03 0.03 0.03 0.03 0.03 0.03 0.03 0.03 0.03 0.03 0.03 0.03 0.03 0.03 0.03 0.03 0.03 0.03 0.03 0.03 0.03 0.03 0.03 0.03 
0.04 0.04 0.04 0.04 0.04 0.04 0.04 0.04 0.04 0.04 0.04 0.04 0.04 0.04 0.04 0.04 0.04 0.04 0.04 0.04 0.04 0.04 0.04 0.04 0.04 0.04 0.04 0.04 0.04 0.04 0.04 0.04 
0.05 0.05 0.05 0.05 0.05 0.05 0.05 0.05 0.05 0.05 0.05 0.05 0.05 0.05 0.05 0.05 0.05 0.05 0.05 0.05 0.05 0.05 0.05 0.05 0.05 0.05 0.05 0.05 0.05 0.05 0.05 0.05 
0.06 0.06 0.06 0.06 0.06 0.06 0.06 0.06 0.06 0.06 0.06 0.06 0.06 0.06 0.06 0.06 0.06 0.06 0.06 0.06 0.06 0.06 0.06 0.06 0.06 0.06 0.06 0.06 0.06 0.06 0.06 0.06 
0.07 0.07 0.07 0.07 0.07 0.07 0.07 0.07 0.07 0.07 0.07 0.07 0.07 0.07 0.07 0.07 0.07 0.07 0.07 0.07 0.07 0.07 0.07 0.07 0.07 0.07 0.07 0.07 0.07 0.07 0.07 0.07 
0.2 0.2 0.2 0.2 0.2 0.2 0.2 0.2 0.2 0.2 0.2 0.2 0.2 0.2 0.2 0.2 0.2 0.2 0.2 0.2 0.2 0.2 0.2 0.2 0.2 0.2 0.2 0.2 0.2 0.2 0.2 0.2 
0.4 0.4 0.4 0.4 0.4 0.4 0.4 0.4 0.4 0.4 0.4 0.4 0.4 0.4 0.4 0.4 0.4 0.4 0.4 0.4 0.4 0.4 0.4 0.4 0.4 0.4 0.4 0.4 0.4 0.4 0.4 0.4 
0.6 0.6 0.6 0.6 0.6 0.6 0.6 0.6 0.6 0.6 0.6 0.6 0.6 0.6 0.6 0.6 0.6 0.6 0.6 0.6 0.6 0.6 0.6 0.6 0.6 0.6 0.6 0.6 0.6 0.6 0.6 0.6 
0.8 0.8 0.8 0.8 0.8 0.8 0.8 0.8 0.8 0.8 0.8 0.8 0.8 0.8 0.8 0.8 0.8 0.8 0.8 0.8 0.8 0.8 0.8 0.8 0.8 0.8 0.8 0.8 0.8 0.8 0.8 0.8 
1 1 1 1 1 1 1 1 1 1 1 1 1 1 1 1 1 1 1 1 1 1 1 1 1 1 1 1 1 1 1 1 
